* Problem:    b-ball-pow2-prescaled
* Class:      LP
* Rows:       30
* Columns:    111
* Non-zeros:  220
* Format:     Free MPS
*
NAME b-ball-pow2-prescaled
ROWS
 N R0000000
 E R0000001
 E R0000002
 E R0000003
 E R0000004
 E R0000005
 E R0000006
 E R0000007
 E R0000008
 E R0000009
 E R0000010
 E R0000011
 E R0000012
 E R0000013
 E R0000014
 E R0000015
 E R0000016
 E R0000017
 E R0000018
 E R0000019
 E R0000020
 E R0000021
 E R0000022
 E R0000023
 E R0000024
 E R0000025
 E R0000026
 E R0000027
 E R0000028
 E R0000029
 E R0000030
COLUMNS
 c0 R0000000 -1 R0000030 1
 c0 R0000029 1 R0000028 1
 c0 R0000027 1 R0000026 1
 c0 R0000025 1 R0000024 1
 c0 R0000023 1 R0000022 1
 c0 R0000021 1 R0000020 1
 c1 R0000020 -1 R0000001 2
 c2 R0000021 -1 R0000002 2
 c3 R0000022 -1 R0000003 2
 c4 R0000023 -1 R0000004 2
 c5 R0000024 -1 R0000005 2
 c6 R0000025 -1 R0000006 2
 c7 R0000026 -1 R0000007 2
 c8 R0000027 -1 R0000008 2
 c9 R0000028 -1 R0000009 2
 c10 R0000029 -1 R0000010 2
 c11 R0000030 -2 R0000011 4
 c12 R0000012 2 R0000001 -2
 c13 R0000013 1 R0000001 -1
 c14 R0000014 1 R0000001 -1
 c15 R0000015 1 R0000001 -1
 c16 R0000016 1 R0000001 -1
 c17 R0000017 1 R0000001 -1
 c18 R0000018 1 R0000001 -1
 c19 R0000019 1 R0000001 -1
 c20 R0000012 2 R0000002 -2
 c21 R0000013 1 R0000002 -1
 c22 R0000014 1 R0000002 -1
 c23 R0000015 1 R0000002 -1
 c24 R0000016 1 R0000002 -1
 c25 R0000017 1 R0000002 -1
 c26 R0000018 1 R0000002 -1
 c27 R0000019 1 R0000002 -1
 c28 R0000012 2 R0000003 -2
 c29 R0000013 1 R0000003 -1
 c30 R0000014 1 R0000003 -1
 c31 R0000015 1 R0000003 -1
 c32 R0000016 1 R0000003 -1
 c33 R0000017 1 R0000003 -1
 c34 R0000018 1 R0000003 -1
 c35 R0000019 1 R0000003 -1
 c36 R0000012 2 R0000004 -2
 c37 R0000013 1 R0000004 -1
 c38 R0000014 1 R0000004 -1
 c39 R0000015 1 R0000004 -1
 c40 R0000016 1 R0000004 -1
 c41 R0000017 1 R0000004 -1
 c42 R0000018 1 R0000004 -1
 c43 R0000019 1 R0000004 -1
 c44 R0000012 2 R0000005 -2
 c45 R0000013 1 R0000005 -1
 c46 R0000014 1 R0000005 -1
 c47 R0000015 1 R0000005 -1
 c48 R0000016 1 R0000005 -1
 c49 R0000017 1 R0000005 -1
 c50 R0000018 1 R0000005 -1
 c51 R0000019 1 R0000005 -1
 c52 R0000012 2 R0000006 -2
 c53 R0000013 1 R0000006 -1
 c54 R0000014 1 R0000006 -1
 c55 R0000015 1 R0000006 -1
 c56 R0000016 1 R0000006 -1
 c57 R0000017 1 R0000006 -1
 c58 R0000018 1 R0000006 -1
 c59 R0000019 1 R0000006 -1
 c60 R0000012 2 R0000007 -2
 c61 R0000013 1 R0000007 -1
 c62 R0000014 1 R0000007 -1
 c63 R0000015 1 R0000007 -1
 c64 R0000016 1 R0000007 -1
 c65 R0000017 1 R0000007 -1
 c66 R0000018 1 R0000007 -1
 c67 R0000019 1 R0000007 -1
 c68 R0000012 2 R0000008 -2
 c69 R0000013 1 R0000008 -1
 c70 R0000014 1 R0000008 -1
 c71 R0000015 1 R0000008 -1
 c72 R0000016 1 R0000008 -1
 c73 R0000017 1 R0000008 -1
 c74 R0000018 1 R0000008 -1
 c75 R0000019 1 R0000008 -1
 c76 R0000012 2 R0000009 -2
 c77 R0000013 1 R0000009 -1
 c78 R0000014 1 R0000009 -1
 c79 R0000015 1 R0000009 -1
 c80 R0000016 1 R0000009 -1
 c81 R0000017 1 R0000009 -1
 c82 R0000018 1 R0000009 -1
 c83 R0000019 1 R0000009 -1
 c84 R0000012 2 R0000010 -2
 c85 R0000013 1 R0000010 -1
 c86 R0000014 1 R0000010 -1
 c87 R0000015 1 R0000010 -1
 c88 R0000016 1 R0000010 -1
 c89 R0000017 1 R0000010 -1
 c90 R0000018 1 R0000010 -1
 c91 R0000019 1 R0000010 -1
 c92 R0000012 4 R0000011 -4
 c93 R0000013 1 R0000011 -1
 c94 R0000014 1 R0000011 -1
 c95 R0000015 1 R0000011 -1
 c96 R0000016 1 R0000011 -1
 c97 R0000017 1 R0000011 -1
 c98 R0000018 1 R0000011 -1
 c99 R0000019 1 R0000011 -1
 c100 R0000020 2
 c101 R0000021 2
 c102 R0000022 2
 c103 R0000023 2
 c104 R0000024 2
 c105 R0000025 2
 c106 R0000026 2
 c107 R0000027 2
 c108 R0000028 2
 c109 R0000029 2
 c110 R0000030 2
RHS
 RHS1 R0000012 5 R0000013 5
 RHS1 R0000014 5 R0000015 5
 RHS1 R0000016 5 R0000017 5
 RHS1 R0000018 5 R0000019 5
BOUNDS
 UP BND1 c12 0.5
 UP BND1 c13 1
 UP BND1 c14 1
 UP BND1 c15 1
 UP BND1 c16 1
 UP BND1 c17 1
 UP BND1 c18 1
 UP BND1 c19 1
 UP BND1 c20 0.5
 UP BND1 c21 1
 UP BND1 c22 1
 UP BND1 c23 1
 UP BND1 c24 1
 UP BND1 c25 1
 UP BND1 c26 1
 UP BND1 c27 1
 UP BND1 c28 0.5
 UP BND1 c29 1
 UP BND1 c30 1
 UP BND1 c31 1
 UP BND1 c32 1
 UP BND1 c33 1
 UP BND1 c34 1
 UP BND1 c35 1
 UP BND1 c36 0.5
 UP BND1 c37 1
 UP BND1 c38 1
 UP BND1 c39 1
 UP BND1 c40 1
 UP BND1 c41 1
 UP BND1 c42 1
 UP BND1 c43 1
 UP BND1 c44 0.5
 UP BND1 c45 1
 UP BND1 c46 1
 UP BND1 c47 1
 UP BND1 c48 1
 UP BND1 c49 1
 UP BND1 c50 1
 UP BND1 c51 1
 UP BND1 c52 0.5
 UP BND1 c53 1
 UP BND1 c54 1
 UP BND1 c55 1
 UP BND1 c56 1
 UP BND1 c57 1
 UP BND1 c58 1
 UP BND1 c59 1
 UP BND1 c60 0.5
 UP BND1 c61 1
 UP BND1 c62 1
 UP BND1 c63 1
 UP BND1 c64 1
 UP BND1 c65 1
 UP BND1 c66 1
 UP BND1 c67 1
 UP BND1 c68 0.5
 UP BND1 c69 1
 UP BND1 c70 1
 UP BND1 c71 1
 UP BND1 c72 1
 UP BND1 c73 1
 UP BND1 c74 1
 UP BND1 c75 1
 UP BND1 c76 0.5
 UP BND1 c77 1
 UP BND1 c78 1
 UP BND1 c79 1
 UP BND1 c80 1
 UP BND1 c81 1
 UP BND1 c82 1
 UP BND1 c83 1
 UP BND1 c84 0.5
 UP BND1 c85 1
 UP BND1 c86 1
 UP BND1 c87 1
 UP BND1 c88 1
 UP BND1 c89 1
 UP BND1 c90 1
 UP BND1 c91 1
 UP BND1 c92 0.25
 UP BND1 c93 1
 UP BND1 c94 1
 UP BND1 c95 1
 UP BND1 c96 1
 UP BND1 c97 1
 UP BND1 c98 1
 UP BND1 c99 1
ENDATA
